c strEdges: 189  randomEdges: 441 
c degrees:  2  3 
c girth: 10 max: 8.032766  
c Hgirth mixed MAXCUT instance
c generated from an undirected graph
c to solve unweighted MaxCut
p cnf 140 1260
35 21 0
-35 -21 0
35 117 0
-35 -117 0
35 126 0
-35 -126 0
75 11 0
-75 -11 0
75 74 0
-75 -74 0
75 65 0
-75 -65 0
81 45 0
-81 -45 0
81 99 0
-81 -99 0
81 137 0
-81 -137 0
15 27 0
-15 -27 0
15 139 0
-15 -139 0
95 79 0
-95 -79 0
95 21 0
-95 -21 0
95 20 0
-95 -20 0
136 139 0
-136 -139 0
136 109 0
-136 -109 0
136 101 0
-136 -101 0
37 101 0
-37 -101 0
37 110 0
-37 -110 0
37 124 0
-37 -124 0
18 42 0
-18 -42 0
18 137 0
-18 -137 0
18 31 0
-18 -31 0
5 69 0
-5 -69 0
5 39 0
-5 -39 0
5 122 0
-5 -122 0
73 134 0
-73 -134 0
73 22 0
-73 -22 0
73 27 0
-73 -27 0
12 114 0
-12 -114 0
12 1 0
-12 -1 0
30 22 0
-30 -22 0
30 114 0
-30 -114 0
30 31 0
-30 -31 0
121 34 0
-121 -34 0
121 128 0
-121 -128 0
121 96 0
-121 -96 0
52 51 0
-52 -51 0
52 133 0
-52 -133 0
52 78 0
-52 -78 0
92 3 0
-92 -3 0
92 1 0
-92 -1 0
92 70 0
-92 -70 0
116 7 0
-116 -7 0
116 85 0
-116 -85 0
116 70 0
-116 -70 0
88 31 0
-88 -31 0
88 56 0
-88 -56 0
88 106 0
-88 -106 0
40 13 0
-40 -13 0
40 139 0
-40 -139 0
40 25 0
-40 -25 0
2 129 0
-2 -129 0
2 49 0
-2 -49 0
2 21 0
-2 -21 0
53 85 0
-53 -85 0
53 77 0
-53 -77 0
112 70 0
-112 -70 0
112 129 0
-112 -129 0
105 137 0
-105 -137 0
105 107 0
-105 -107 0
86 74 0
-86 -74 0
86 10 0
-86 -10 0
86 28 0
-86 -28 0
4 110 0
-4 -110 0
4 98 0
-4 -98 0
32 117 0
-32 -117 0
32 72 0
-32 -72 0
32 43 0
-32 -43 0
83 10 0
-83 -10 0
83 3 0
-83 -3 0
83 110 0
-83 -110 0
26 72 0
-26 -72 0
26 22 0
-26 -22 0
26 124 0
-26 -124 0
91 63 0
-91 -63 0
91 11 0
-91 -11 0
91 42 0
-91 -42 0
125 107 0
-125 -107 0
125 55 0
-125 -55 0
125 27 0
-125 -27 0
130 135 0
-130 -135 0
130 51 0
-130 -51 0
57 131 0
-57 -131 0
57 25 0
-57 -25 0
57 128 0
-57 -128 0
66 115 0
-66 -115 0
66 7 0
-66 -7 0
66 72 0
-66 -72 0
19 106 0
-19 -106 0
19 41 0
-19 -41 0
16 122 0
-16 -122 0
16 67 0
-16 -67 0
16 126 0
-16 -126 0
9 65 0
-9 -65 0
9 7 0
-9 -7 0
61 55 0
-61 -55 0
61 41 0
-61 -41 0
61 133 0
-61 -133 0
119 25 0
-119 -25 0
119 56 0
-119 -56 0
93 78 0
-93 -78 0
93 96 0
-93 -96 0
64 41 0
-64 -41 0
64 122 0
-64 -122 0
54 20 0
-54 -20 0
54 76 0
-54 -76 0
140 28 0
-140 -28 0
140 55 0
-140 -55 0
113 100 0
-113 -100 0
113 51 0
-113 -51 0
58 99 0
-58 -99 0
58 77 0
-58 -77 0
58 102 0
-58 -102 0
47 67 0
-47 -67 0
47 99 0
-47 -99 0
47 115 0
-47 -115 0
59 50 0
-59 -50 0
59 49 0
-59 -49 0
59 135 0
-59 -135 0
108 1 0
-108 -1 0
108 67 0
-108 -67 0
108 6 0
-108 -6 0
84 60 0
-84 -60 0
84 76 0
-84 -76 0
120 44 0
-120 -44 0
120 134 0
-120 -134 0
120 48 0
-120 -48 0
111 123 0
-111 -123 0
111 69 0
-111 -69 0
111 101 0
-111 -101 0
29 104 0
-29 -104 0
29 129 0
-29 -129 0
132 43 0
-132 -43 0
132 123 0
-132 -123 0
132 102 0
-132 -102 0
103 39 0
-103 -39 0
103 11 0
-103 -11 0
46 17 0
-46 -17 0
46 6 0
-46 -6 0
46 135 0
-46 -135 0
94 48 0
-94 -48 0
94 89 0
-94 -89 0
94 42 0
-94 -42 0
8 89 0
-8 -89 0
8 78 0
-8 -78 0
14 56 0
-14 -56 0
14 100 0
-14 -100 0
14 3 0
-14 -3 0
36 109 0
-36 -109 0
36 50 0
-36 -50 0
36 45 0
-36 -45 0
71 98 0
-71 -98 0
71 127 0
-71 -127 0
71 17 0
-71 -17 0
38 133 0
-38 -133 0
38 85 0
-38 -85 0
33 49 0
-33 -49 0
33 131 0
-33 -131 0
33 28 0
-33 -28 0
90 6 0
-90 -6 0
90 13 0
-90 -13 0
90 63 0
-90 -63 0
97 138 0
-97 -138 0
97 44 0
-97 -44 0
97 60 0
-97 -60 0
68 127 0
-68 -127 0
68 20 0
-68 -20 0
68 107 0
-68 -107 0
24 76 0
-24 -76 0
24 65 0
-24 -65 0
24 109 0
-24 -109 0
82 77 0
-82 -77 0
82 79 0
-82 -79 0
80 126 0
-80 -126 0
80 138 0
-80 -138 0
80 34 0
-80 -34 0
62 102 0
-62 -102 0
62 100 0
-62 -100 0
62 60 0
-62 -60 0
118 96 0
-118 -96 0
118 114 0
-118 -114 0
118 39 0
-118 -39 0
87 124 0
-87 -124 0
87 104 0
-87 -104 0
87 89 0
-87 -89 0
23 128 0
-23 -128 0
23 115 0
-23 -115 0
23 98 0
-23 -98 0
80 22 0
-80 -22 0
110 109 0
-110 -109 0
136 128 0
-136 -128 0
116 65 0
-116 -65 0
15 87 0
-15 -87 0
13 109 0
-13 -109 0
71 100 0
-71 -100 0
74 99 0
-74 -99 0
75 31 0
-75 -31 0
108 98 0
-108 -98 0
29 77 0
-29 -77 0
59 101 0
-59 -101 0
75 133 0
-75 -133 0
14 134 0
-14 -134 0
54 71 0
-54 -71 0
50 109 0
-50 -109 0
16 61 0
-16 -61 0
26 47 0
-26 -47 0
97 123 0
-97 -123 0
120 28 0
-120 -28 0
103 36 0
-103 -36 0
107 128 0
-107 -128 0
32 131 0
-32 -131 0
116 48 0
-116 -48 0
72 99 0
-72 -99 0
116 107 0
-116 -107 0
8 139 0
-8 -139 0
14 31 0
-14 -31 0
88 13 0
-88 -13 0
54 128 0
-54 -128 0
35 29 0
-35 -29 0
51 6 0
-51 -6 0
66 36 0
-66 -36 0
29 50 0
-29 -50 0
91 3 0
-91 -3 0
88 48 0
-88 -48 0
83 91 0
-83 -91 0
64 21 0
-64 -21 0
112 8 0
-112 -8 0
112 77 0
-112 -77 0
115 17 0
-115 -17 0
14 117 0
-14 -117 0
42 48 0
-42 -48 0
63 78 0
-63 -78 0
111 41 0
-111 -41 0
58 65 0
-58 -65 0
27 13 0
-27 -13 0
39 109 0
-39 -109 0
75 73 0
-75 -73 0
116 42 0
-116 -42 0
66 100 0
-66 -100 0
54 77 0
-54 -77 0
92 103 0
-92 -103 0
45 128 0
-45 -128 0
119 122 0
-119 -122 0
21 6 0
-21 -6 0
58 49 0
-58 -49 0
65 96 0
-65 -96 0
15 33 0
-15 -33 0
103 96 0
-103 -96 0
40 127 0
-40 -127 0
112 32 0
-112 -32 0
140 43 0
-140 -43 0
81 96 0
-81 -96 0
88 84 0
-88 -84 0
4 31 0
-4 -31 0
108 49 0
-108 -49 0
137 78 0
-137 -78 0
81 23 0
-81 -23 0
54 129 0
-54 -129 0
83 39 0
-83 -39 0
92 44 0
-92 -44 0
131 17 0
-131 -17 0
79 122 0
-79 -122 0
18 113 0
-18 -113 0
32 62 0
-32 -62 0
73 140 0
-73 -140 0
21 79 0
-21 -79 0
29 10 0
-29 -10 0
66 132 0
-66 -132 0
53 27 0
-53 -27 0
140 17 0
-140 -17 0
36 79 0
-36 -79 0
34 100 0
-34 -100 0
62 69 0
-62 -69 0
72 123 0
-72 -123 0
114 13 0
-114 -13 0
103 76 0
-103 -76 0
87 25 0
-87 -25 0
3 7 0
-3 -7 0
58 63 0
-58 -63 0
138 127 0
-138 -127 0
43 126 0
-43 -126 0
36 128 0
-36 -128 0
12 125 0
-12 -125 0
12 20 0
-12 -20 0
103 1 0
-103 -1 0
53 94 0
-53 -94 0
132 106 0
-132 -106 0
104 138 0
-104 -138 0
59 20 0
-59 -20 0
39 49 0
-39 -49 0
136 6 0
-136 -6 0
93 10 0
-93 -10 0
83 118 0
-83 -118 0
105 138 0
-105 -138 0
45 115 0
-45 -115 0
4 19 0
-4 -19 0
5 120 0
-5 -120 0
119 46 0
-119 -46 0
119 82 0
-119 -82 0
86 11 0
-86 -11 0
12 108 0
-12 -108 0
93 34 0
-93 -34 0
91 101 0
-91 -101 0
46 129 0
-46 -129 0
94 49 0
-94 -49 0
107 127 0
-107 -127 0
103 24 0
-103 -24 0
75 32 0
-75 -32 0
48 89 0
-48 -89 0
113 65 0
-113 -65 0
52 70 0
-52 -70 0
12 140 0
-12 -140 0
62 99 0
-62 -99 0
132 97 0
-132 -97 0
9 67 0
-9 -67 0
54 58 0
-54 -58 0
86 20 0
-86 -20 0
130 14 0
-130 -14 0
8 80 0
-8 -80 0
92 45 0
-92 -45 0
14 127 0
-14 -127 0
66 94 0
-66 -94 0
11 122 0
-11 -122 0
130 10 0
-130 -10 0
83 137 0
-83 -137 0
5 98 0
-5 -98 0
135 122 0
-135 -122 0
37 41 0
-37 -41 0
58 76 0
-58 -76 0
75 8 0
-75 -8 0
129 104 0
-129 -104 0
30 24 0
-30 -24 0
73 138 0
-73 -138 0
91 137 0
-91 -137 0
64 100 0
-64 -100 0
66 14 0
-66 -14 0
18 127 0
-18 -127 0
130 67 0
-130 -67 0
61 78 0
-61 -78 0
137 100 0
-137 -100 0
73 60 0
-73 -60 0
105 78 0
-105 -78 0
105 66 0
-105 -66 0
67 17 0
-67 -17 0
26 126 0
-26 -126 0
34 56 0
-34 -56 0
105 34 0
-105 -34 0
15 65 0
-15 -65 0
34 55 0
-34 -55 0
97 17 0
-97 -17 0
15 49 0
-15 -49 0
86 80 0
-86 -80 0
66 103 0
-66 -103 0
62 117 0
-62 -117 0
46 7 0
-46 -7 0
112 1 0
-112 -1 0
46 48 0
-46 -48 0
18 5 0
-18 -5 0
37 103 0
-37 -103 0
34 131 0
-34 -131 0
81 47 0
-81 -47 0
13 96 0
-13 -96 0
118 10 0
-118 -10 0
81 13 0
-81 -13 0
20 6 0
-20 -6 0
120 31 0
-120 -31 0
140 11 0
-140 -11 0
15 9 0
-15 -9 0
33 104 0
-33 -104 0
103 133 0
-103 -133 0
18 61 0
-18 -61 0
47 45 0
-47 -45 0
27 128 0
-27 -128 0
96 128 0
-96 -128 0
74 89 0
-74 -89 0
65 50 0
-65 -50 0
91 68 0
-91 -68 0
134 34 0
-134 -34 0
137 39 0
-137 -39 0
31 77 0
-31 -77 0
30 2 0
-30 -2 0
113 109 0
-113 -109 0
95 71 0
-95 -71 0
30 78 0
-30 -78 0
52 36 0
-52 -36 0
12 62 0
-12 -62 0
53 49 0
-53 -49 0
3 131 0
-3 -131 0
53 114 0
-53 -114 0
36 49 0
-36 -49 0
135 123 0
-135 -123 0
51 138 0
-51 -138 0
97 42 0
-97 -42 0
53 71 0
-53 -71 0
139 51 0
-139 -51 0
30 107 0
-30 -107 0
12 83 0
-12 -83 0
74 117 0
-74 -117 0
62 42 0
-62 -42 0
11 22 0
-11 -22 0
52 33 0
-52 -33 0
59 68 0
-59 -68 0
62 133 0
-62 -133 0
58 42 0
-58 -42 0
5 88 0
-5 -88 0
82 72 0
-82 -72 0
35 128 0
-35 -128 0
52 29 0
-52 -29 0
69 55 0
-69 -55 0
88 122 0
-88 -122 0
57 134 0
-57 -134 0
47 138 0
-47 -138 0
106 76 0
-106 -76 0
106 98 0
-106 -98 0
94 6 0
-94 -6 0
136 102 0
-136 -102 0
68 80 0
-68 -80 0
31 43 0
-31 -43 0
83 138 0
-83 -138 0
120 110 0
-120 -110 0
15 123 0
-15 -123 0
52 59 0
-52 -59 0
48 138 0
-48 -138 0
15 129 0
-15 -129 0
68 89 0
-68 -89 0
140 1 0
-140 -1 0
84 68 0
-84 -68 0
125 45 0
-125 -45 0
116 99 0
-116 -99 0
72 138 0
-72 -138 0
27 31 0
-27 -31 0
136 104 0
-136 -104 0
55 56 0
-55 -56 0
21 43 0
-21 -43 0
125 19 0
-125 -19 0
86 103 0
-86 -103 0
132 3 0
-132 -3 0
23 10 0
-23 -10 0
93 65 0
-93 -65 0
106 96 0
-106 -96 0
61 79 0
-61 -79 0
19 76 0
-19 -76 0
91 139 0
-91 -139 0
132 74 0
-132 -74 0
67 44 0
-67 -44 0
83 46 0
-83 -46 0
30 79 0
-30 -79 0
93 135 0
-93 -135 0
32 46 0
-32 -46 0
24 135 0
-24 -135 0
68 55 0
-68 -55 0
83 107 0
-83 -107 0
81 83 0
-81 -83 0
13 129 0
-13 -129 0
29 45 0
-29 -45 0
116 134 0
-116 -134 0
19 42 0
-19 -42 0
121 116 0
-121 -116 0
11 6 0
-11 -6 0
117 1 0
-117 -1 0
91 31 0
-91 -31 0
35 115 0
-35 -115 0
68 129 0
-68 -129 0
92 137 0
-92 -137 0
74 39 0
-74 -39 0
112 49 0
-112 -49 0
87 51 0
-87 -51 0
80 10 0
-80 -10 0
27 28 0
-27 -28 0
9 68 0
-9 -68 0
121 7 0
-121 -7 0
36 135 0
-36 -135 0
82 131 0
-82 -131 0
8 50 0
-8 -50 0
52 108 0
-52 -108 0
57 84 0
-57 -84 0
88 123 0
-88 -123 0
23 63 0
-23 -63 0
36 63 0
-36 -63 0
30 44 0
-30 -44 0
117 39 0
-117 -39 0
140 129 0
-140 -129 0
132 23 0
-132 -23 0
81 46 0
-81 -46 0
64 123 0
-64 -123 0
4 46 0
-4 -46 0
125 78 0
-125 -78 0
61 31 0
-61 -31 0
44 123 0
-44 -123 0
121 138 0
-121 -138 0
11 106 0
-11 -106 0
5 56 0
-5 -56 0
46 102 0
-46 -102 0
26 23 0
-26 -23 0
19 74 0
-19 -74 0
125 41 0
-125 -41 0
117 99 0
-117 -99 0
61 80 0
-61 -80 0
92 28 0
-92 -28 0
53 118 0
-53 -118 0
47 120 0
-47 -120 0
32 69 0
-32 -69 0
140 8 0
-140 -8 0
84 31 0
-84 -31 0
33 123 0
-33 -123 0
4 132 0
-4 -132 0
23 102 0
-23 -102 0
74 67 0
-74 -67 0
114 7 0
-114 -7 0
26 82 0
-26 -82 0
87 1 0
-87 -1 0
91 113 0
-91 -113 0
129 100 0
-129 -100 0
101 17 0
-101 -17 0
92 133 0
-92 -133 0
54 38 0
-54 -38 0
46 67 0
-46 -67 0
139 60 0
-139 -60 0
16 99 0
-16 -99 0
112 127 0
-112 -127 0
14 13 0
-14 -13 0
19 54 0
-19 -54 0
78 44 0
-78 -44 0
83 50 0
-83 -50 0
85 115 0
-85 -115 0
91 109 0
-91 -109 0
40 137 0
-40 -137 0
90 56 0
-90 -56 0
92 58 0
-92 -58 0
35 23 0
-35 -23 0
110 115 0
-110 -115 0
129 65 0
-129 -65 0
8 27 0
-8 -27 0
115 99 0
-115 -99 0
103 62 0
-103 -62 0
53 132 0
-53 -132 0
45 109 0
-45 -109 0
114 67 0
-114 -67 0
15 7 0
-15 -7 0
12 72 0
-12 -72 0
86 16 0
-86 -16 0
121 57 0
-121 -57 0
12 116 0
-12 -116 0
38 137 0
-38 -137 0
140 100 0
-140 -100 0
110 128 0
-110 -128 0
35 55 0
-35 -55 0
121 117 0
-121 -117 0
112 72 0
-112 -72 0
81 8 0
-81 -8 0
105 11 0
-105 -11 0
53 10 0
-53 -10 0
61 27 0
-61 -27 0
29 14 0
-29 -14 0
53 86 0
-53 -86 0
70 126 0
-70 -126 0
9 59 0
-9 -59 0
26 94 0
-26 -94 0
116 86 0
-116 -86 0
132 103 0
-132 -103 0
129 55 0
-129 -55 0
5 102 0
-5 -102 0
8 135 0
-8 -135 0
46 79 0
-46 -79 0
5 70 0
-5 -70 0
103 65 0
-103 -65 0
78 133 0
-78 -133 0
95 66 0
-95 -66 0
139 124 0
-139 -124 0
120 123 0
-120 -123 0
26 103 0
-26 -103 0
80 62 0
-80 -62 0
64 109 0
-64 -109 0
2 14 0
-2 -14 0
71 6 0
-71 -6 0
63 128 0
-63 -128 0
46 33 0
-46 -33 0
34 7 0
-34 -7 0
8 51 0
-8 -51 0
114 98 0
-114 -98 0
4 76 0
-4 -76 0
14 7 0
-14 -7 0
35 9 0
-35 -9 0
88 65 0
-88 -65 0
125 3 0
-125 -3 0
104 102 0
-104 -102 0
14 60 0
-14 -60 0
97 137 0
-97 -137 0
12 27 0
-12 -27 0
121 137 0
-121 -137 0
137 109 0
-137 -109 0
52 76 0
-52 -76 0
18 105 0
-18 -105 0
75 3 0
-75 -3 0
9 27 0
-9 -27 0
34 98 0
-34 -98 0
24 28 0
-24 -28 0
53 33 0
-53 -33 0
112 6 0
-112 -6 0
97 87 0
-97 -87 0
93 140 0
-93 -140 0
52 85 0
-52 -85 0
18 99 0
-18 -99 0
45 70 0
-45 -70 0
53 104 0
-53 -104 0
116 53 0
-116 -53 0
53 68 0
-53 -68 0
29 70 0
-29 -70 0
93 117 0
-93 -117 0
54 31 0
-54 -31 0
107 76 0
-107 -76 0
85 28 0
-85 -28 0
136 19 0
-136 -19 0
11 109 0
-11 -109 0
29 20 0
-29 -20 0
90 122 0
-90 -122 0
66 114 0
-66 -114 0
25 78 0
-25 -78 0
20 89 0
-20 -89 0
33 72 0
-33 -72 0
72 60 0
-72 -60 0
136 26 0
-136 -26 0
33 97 0
-33 -97 0
140 113 0
-140 -113 0
4 33 0
-4 -33 0
34 41 0
-34 -41 0
33 23 0
-33 -23 0
113 85 0
-113 -85 0
35 96 0
-35 -96 0
